/*********************************************
 * OPL 20.1.0.0 Data
 * Author: CarlosJavier
 * Creation Date: 27/04/2022 at 9:18:17 a. m.
 *********************************************/
 
 total_weeks = 8;
 cash_sales = [600, 750, 1200, 2100, 2250, 180, 330, 540];
 accounts_receivable = [770, 1260, 1400, 1750, 2800, 4900, 5250, 420];
 accounts_payable = [3200, 5600, 6000, 480, 880, 1440, 1600, 2000];
 expenses = [350, 400, 550, 940, 990, 350, 350, 410];